VALUE 2752
6 182
13 138
17 288
27 207
28 288
29 217
38 166
42 106
48 311
86 293
86 91
92 302
95 152
99 205
91 106
110 218
121 234
138 169
92 141
6 150
17 152
153 156
156 172
27 157
158 263
164 238
29 166
169 184
172 219
182 238
184 213
121 192
205 209
158 207
209 311
213 295
214 234
217 250
218 254
219 309
48 222
192 228
222 229
166 234
13 238
28 250
228 254
150 263
229 283
293 295
283 294
141 295
99 302
95 308
42 309
110 311

